(set-logic HORN)
(set-info :source |
    Benchmark: C_VC
    Output by Princess (http://www.philipp.ruemmer.org/princess.shtml)
|)
(set-info :status unsat)
;===============================================================================
; Encoding of Heap sorts and operations
;-------------------------------------------------------------------------------
(define-sort Addr() Int)
(declare-datatypes ((AddrRange 0))
                   (((AddrRange (AddrRangeStart Addr) (AddrRangeSize Int)))))

(declare-datatypes ((HeapObject 0) (node 0))
                   (((O_Int (getInt Int)) (O_UInt (getUInt Int)) (O_Addr (getAddr Addr)) (O_AddrRange (getAddrRange AddrRange)) (O_node (getnode node)) (defObj))
                   ((node (|node::h| Int) (|node::n| Addr)))))
(declare-datatypes ((BatchAllocResHeap 0) (AllocResHeap 0) (Heap 0))
                   (((BatchAllocResHeap   (newBatchHeap Heap) (newAddrRange AddrRange)))
                   ((AllocResHeap   (newHeap Heap) (newAddr Addr)))
                    ((HeapCtor (HeapSize Int)
                               (HeapContents (Array Addr HeapObject))))))
(define-fun nullAddr  () Addr 0)
(define-fun valid     ((h Heap) (p Addr)) Bool
  (and (>= (HeapSize h) p) (> p 0)))
(define-fun emptyHeap () Heap (
  HeapCtor 0 (( as const (Array Addr HeapObject)) defObj)))
(define-fun read ((h Heap) (p Addr)) HeapObject
  (ite (valid h p)
       (select (HeapContents h) p)
       defObj))
(define-fun write ((h Heap) (p Addr) (o HeapObject)) Heap
  (ite (valid h p)
       (HeapCtor (HeapSize h) (store (HeapContents h) p o))
       h))
(define-fun alloc   ((h Heap) (o HeapObject)) AllocResHeap
  (AllocResHeap (HeapCtor (+ 1 (HeapSize h))
                    (store (HeapContents h) (+ 1 (HeapSize h)) o))
          (+ 1 (HeapSize h))))

;===============================================================================
(declare-fun inv_main534_3 (Heap Int Int) Bool)
(declare-fun inv_main535_15 (Heap Int Int Addr Int) Bool)
(declare-fun inv_main537_3 (Heap Int Int Addr Addr Addr) Bool)
(declare-fun inv_main542_17 (Heap Int Int Addr Addr Addr Int) Bool)
(declare-fun inv_main550_17 (Heap Int Int Addr Addr Addr Int) Bool)
(declare-fun inv_main567_6_35 (Heap Int Int Addr Addr Addr) Bool)
(declare-fun inv_main_27 (Heap Int Int Addr Addr Addr) Bool)
(declare-fun inv_main_28 (Heap Int Int Addr Addr Addr) Bool)
(declare-fun inv_main_3 (Heap Int Int Addr Addr Addr) Bool)
(declare-fun inv_main_38 (Heap Int Int Addr Addr Addr) Bool)
(assert (forall ((var0 Int) (var1 Int) (var2 Heap)) (or (not (and (and (= var2 emptyHeap) (= var1 0)) (= var0 0))) (inv_main534_3 var2 var1 var0))))
(assert (forall ((var0 Int) (var1 Int) (var2 Addr) (var3 Addr) (var4 Addr) (var5 Int) (var6 Int) (var7 Heap) (var8 Addr) (var9 Addr) (var10 Addr) (var11 Int) (var12 Int) (var13 Heap) (var14 Addr) (var15 Addr) (var16 Addr) (var17 Int) (var18 Int) (var19 Heap)) (or (not (and (inv_main_3 var19 var18 var17 var16 var15 var14) (and (and (and (and (not (<= 0 (+ (+ 10 (* (- 1) var17)) (- 1)))) (and (and (and (and (and (= var13 (write var19 var14 (O_node (node 3 (|node::n| (getnode (read var19 var14))))))) (= var12 var18)) (= var11 var17)) (= var10 var16)) (= var9 var15)) (= var8 var14))) (and (and (and (and (and (= var7 (write var13 var8 (O_node (node (|node::h| (getnode (read var13 var8))) 0)))) (= var6 var12)) (= var5 var11)) (= var4 var10)) (= var3 var9)) (= var2 var8))) (= var1 0)) (= var0 0)))) (inv_main_27 var7 var1 var0 var4 var3 var4))))
(assert (forall ((var0 Int) (var1 Int) (var2 Addr) (var3 Addr) (var4 Addr) (var5 Int) (var6 Int) (var7 Heap) (var8 Addr) (var9 Addr) (var10 Addr) (var11 Int) (var12 Int) (var13 Heap) (var14 Int) (var15 Addr) (var16 Addr) (var17 Addr) (var18 Int) (var19 Int) (var20 Heap)) (or (not (and (inv_main_3 var20 var19 var18 var17 var16 var15) (and (and (and (and (and (= var14 0) (<= 0 (+ (+ 10 (* (- 1) var18)) (- 1)))) (and (and (and (and (and (= var13 (write var20 var15 (O_node (node 3 (|node::n| (getnode (read var20 var15))))))) (= var12 var19)) (= var11 var18)) (= var10 var17)) (= var9 var16)) (= var8 var15))) (and (and (and (and (and (= var7 (write var13 var8 (O_node (node (|node::h| (getnode (read var13 var8))) 0)))) (= var6 var12)) (= var5 var11)) (= var4 var10)) (= var3 var9)) (= var2 var8))) (= var1 0)) (= var0 0)))) (inv_main_27 var7 var1 var0 var4 var3 var4))))
(assert (forall ((var0 Int) (var1 Addr) (var2 Addr) (var3 Addr) (var4 Addr) (var5 Addr) (var6 Addr) (var7 Addr) (var8 Int) (var9 Int) (var10 Int) (var11 Int) (var12 Heap) (var13 Heap) (var14 Addr) (var15 Addr) (var16 Addr) (var17 Int) (var18 Int) (var19 Heap)) (or (not (and (inv_main_27 var19 var18 var17 var16 var15 var14) (and (and (and (and (and (and (and (= var13 var12) (= var11 (+ var10 1))) (= var9 var8)) (= var7 var6)) (= var5 var4)) (= var3 var2)) (= var1 (|node::n| (getnode (read var12 var2))))) (and (= var0 1) (and (and (and (and (and (and (= var12 var19) (= var10 var18)) (= var8 var17)) (= var6 var16)) (= var4 var15)) (= var2 var14)) (= var0 (|node::h| (getnode (read var19 var14))))))))) (inv_main_27 var13 var11 var9 var7 var5 var1))))
(assert (forall ((var0 Int) (var1 Addr) (var2 Addr) (var3 Addr) (var4 Int) (var5 Int) (var6 Heap)) (or (not (inv_main542_17 var6 var5 var4 var3 var2 var1 var0)) (inv_main542_17 var6 var5 var4 var3 var2 var1 var0))))
(assert (forall ((var0 Int) (var1 Int) (var2 Addr) (var3 Addr) (var4 Addr) (var5 Addr) (var6 Addr) (var7 Addr) (var8 Int) (var9 Int) (var10 Int) (var11 Int) (var12 node) (var13 Heap) (var14 Heap) (var15 Addr) (var16 Addr) (var17 Addr) (var18 Addr) (var19 Int) (var20 Int) (var21 Heap)) (or (not (and (inv_main537_3 var21 var20 var19 var18 var17 var16) (and (and (= var15 nullAddr) (and (and (and (and (and (and (and (and (= var14 (newHeap (alloc var13 (O_node var12)))) (= var11 var10)) (= var9 var8)) (= var7 var6)) (= var5 var4)) (= var3 var2)) (= var15 (newAddr (alloc var13 (O_node var12))))) (and (not (= var1 0)) (<= 0 (+ (+ 10 (* (- 1) var20)) (- 1))))) (and (and (and (and (and (= var13 (write var21 var16 (O_node (node 1 (|node::n| (getnode (read var21 var16))))))) (= var10 (+ var20 1))) (= var8 var19)) (= var6 var18)) (= var4 var17)) (= var2 var16)))) (= var0 1)))) (inv_main542_17 var14 var11 var9 var7 var15 var3 var0))))
(assert (forall ((var0 Int) (var1 Addr) (var2 Int) (var3 Int) (var4 Heap)) (or (not (inv_main535_15 var4 var3 var2 var1 var0)) (inv_main535_15 var4 var3 var2 var1 var0))))
(assert (forall ((var0 Int) (var1 Int) (var2 Int) (var3 node) (var4 Heap) (var5 Addr) (var6 Int) (var7 Int) (var8 Heap)) (or (not (and (inv_main534_3 var8 var7 var6) (and (and (= var5 nullAddr) (and (and (and (= var4 (newHeap (alloc var8 (O_node var3)))) (= var2 var7)) (= var1 var6)) (= var5 (newAddr (alloc var8 (O_node var3)))))) (= var0 1)))) (inv_main535_15 var4 var2 var1 var5 var0))))
(assert (forall ((var0 Int) (var1 Addr) (var2 Addr) (var3 Addr) (var4 Addr) (var5 Addr) (var6 Addr) (var7 Int) (var8 Int) (var9 Heap) (var10 Heap) (var11 Int) (var12 Int) (var13 Int) (var14 Addr) (var15 Addr) (var16 Addr) (var17 Int) (var18 Int) (var19 Heap)) (or (not (and (inv_main_28 var19 var18 var17 var16 var15 var14) (and (and (or (not (= var13 3)) (<= 0 (+ (+ 20 (* (- 1) (+ var12 var11))) (- 1)))) (and (and (and (and (and (and (= var10 var9) (= var12 var8)) (= var11 var7)) (= var6 var5)) (= var4 var3)) (= var2 var1)) (= var13 (|node::h| (getnode (read var9 var1)))))) (and (not (= var0 2)) (and (and (and (and (and (and (= var9 var19) (= var8 var18)) (= var7 var17)) (= var5 var16)) (= var3 var15)) (= var1 var14)) (= var0 (|node::h| (getnode (read var19 var14))))))))) (inv_main567_6_35 var10 var12 var11 var6 var4 var2))))
(assert (forall ((var0 Addr) (var1 Addr) (var2 Addr) (var3 Int) (var4 Int) (var5 Heap)) (or (not (and (inv_main537_3 var5 var4 var3 var2 var1 var0) (not (<= 0 (+ (+ 10 (* (- 1) var4)) (- 1)))))) (inv_main_3 var5 var4 var3 var2 var1 var0))))
(assert (forall ((var0 Int) (var1 Addr) (var2 Addr) (var3 Addr) (var4 Int) (var5 Int) (var6 Heap)) (or (not (and (inv_main537_3 var6 var5 var4 var3 var2 var1) (and (= var0 0) (<= 0 (+ (+ 10 (* (- 1) var5)) (- 1)))))) (inv_main_3 var6 var5 var4 var3 var2 var1))))
(assert (forall ((var0 Int) (var1 Addr) (var2 Addr) (var3 Addr) (var4 Addr) (var5 Int) (var6 Int) (var7 node) (var8 Heap) (var9 Addr) (var10 Int) (var11 Int) (var12 Addr) (var13 Addr) (var14 Heap) (var15 Addr) (var16 Addr) (var17 Addr) (var18 Addr) (var19 Addr) (var20 Addr) (var21 Addr) (var22 Int) (var23 Int) (var24 Int) (var25 Int) (var26 Heap) (var27 Heap) (var28 Addr) (var29 Addr) (var30 Addr) (var31 Int) (var32 Int) (var33 Heap)) (or (not (and (inv_main_3 var33 var32 var31 var30 var29 var28) (and (and (and (and (and (and (and (and (= var27 var26) (= var25 var24)) (= var23 var22)) (= var21 var20)) (= var19 var18)) (= var17 var16)) (= var15 (|node::n| (getnode (read var26 var16))))) (and (and (and (and (and (= var26 (write var14 var13 (O_node (node (|node::h| (getnode (read var14 var13))) var12)))) (= var24 var11)) (= var22 var10)) (= var20 var9)) (= var18 var12)) (= var16 var13))) (and (not (= var12 nullAddr)) (and (and (and (and (and (and (and (and (= var14 (newHeap (alloc var8 (O_node var7)))) (= var11 var6)) (= var10 var5)) (= var9 var4)) (= var3 var2)) (= var13 var1)) (= var12 (newAddr (alloc var8 (O_node var7))))) (and (not (= var0 0)) (<= 0 (+ (+ 10 (* (- 1) var31)) (- 1))))) (and (and (and (and (and (= var8 (write var33 var28 (O_node (node 2 (|node::n| (getnode (read var33 var28))))))) (= var6 var32)) (= var5 (+ var31 1))) (= var4 var30)) (= var2 var29)) (= var1 var28))))))) (inv_main_3 var27 var25 var23 var21 var19 var15))))
(assert (forall ((var0 Int) (var1 Addr) (var2 Addr) (var3 Addr) (var4 Addr) (var5 Int) (var6 Int) (var7 node) (var8 Heap) (var9 Addr) (var10 Int) (var11 Int) (var12 Addr) (var13 Addr) (var14 Heap) (var15 Addr) (var16 Addr) (var17 Addr) (var18 Addr) (var19 Addr) (var20 Addr) (var21 Addr) (var22 Int) (var23 Int) (var24 Int) (var25 Int) (var26 Heap) (var27 Heap) (var28 Addr) (var29 Addr) (var30 Addr) (var31 Int) (var32 Int) (var33 Heap)) (or (not (and (inv_main537_3 var33 var32 var31 var30 var29 var28) (and (and (and (and (and (and (and (and (= var27 var26) (= var25 var24)) (= var23 var22)) (= var21 var20)) (= var19 var18)) (= var17 var16)) (= var15 (|node::n| (getnode (read var26 var16))))) (and (and (and (and (and (= var26 (write var14 var13 (O_node (node (|node::h| (getnode (read var14 var13))) var12)))) (= var24 var11)) (= var22 var10)) (= var20 var9)) (= var18 var12)) (= var16 var13))) (and (not (= var12 nullAddr)) (and (and (and (and (and (and (and (and (= var14 (newHeap (alloc var8 (O_node var7)))) (= var11 var6)) (= var10 var5)) (= var9 var4)) (= var3 var2)) (= var13 var1)) (= var12 (newAddr (alloc var8 (O_node var7))))) (and (not (= var0 0)) (<= 0 (+ (+ 10 (* (- 1) var32)) (- 1))))) (and (and (and (and (and (= var8 (write var33 var28 (O_node (node 1 (|node::n| (getnode (read var33 var28))))))) (= var6 (+ var32 1))) (= var5 var31)) (= var4 var30)) (= var2 var29)) (= var1 var28))))))) (inv_main537_3 var27 var25 var23 var21 var19 var15))))
(assert (forall ((var0 Addr) (var1 Int) (var2 Int) (var3 node) (var4 Heap) (var5 Addr) (var6 Int) (var7 Int) (var8 Heap)) (or (not (and (inv_main534_3 var8 var7 var6) (and (not (= var5 nullAddr)) (and (and (and (= var4 (newHeap (alloc var8 (O_node var3)))) (= var2 var7)) (= var1 var6)) (= var5 (newAddr (alloc var8 (O_node var3)))))))) (inv_main537_3 var4 var2 var1 var5 var0 var5))))
(assert (forall ((var0 Int) (var1 Addr) (var2 Addr) (var3 Addr) (var4 Addr) (var5 Addr) (var6 Addr) (var7 Int) (var8 Int) (var9 Heap) (var10 Heap) (var11 Int) (var12 Int) (var13 Int) (var14 Addr) (var15 Addr) (var16 Addr) (var17 Int) (var18 Int) (var19 Heap)) (or (not (and (inv_main_28 var19 var18 var17 var16 var15 var14) (and (and (and (= var13 3) (not (<= 0 (+ (+ 20 (* (- 1) (+ var12 var11))) (- 1))))) (and (and (and (and (and (and (= var10 var9) (= var12 var8)) (= var11 var7)) (= var6 var5)) (= var4 var3)) (= var2 var1)) (= var13 (|node::h| (getnode (read var9 var1)))))) (and (not (= var0 2)) (and (and (and (and (and (and (= var9 var19) (= var8 var18)) (= var7 var17)) (= var5 var16)) (= var3 var15)) (= var1 var14)) (= var0 (|node::h| (getnode (read var19 var14))))))))) (inv_main_38 var10 var12 var11 var6 var4 var6))))
(assert (forall ((var0 Addr) (var1 Addr) (var2 Addr) (var3 Int) (var4 Int) (var5 Heap) (var6 Addr) (var7 Addr) (var8 Addr) (var9 Addr) (var10 Addr) (var11 Addr) (var12 Addr) (var13 Addr) (var14 Int) (var15 Int) (var16 Int) (var17 Int) (var18 Heap) (var19 Heap) (var20 Addr) (var21 Addr) (var22 Addr) (var23 Int) (var24 Int) (var25 Heap)) (or (not (and (inv_main_38 var25 var24 var23 var22 var21 var20) (and (and (and (and (and (and (and (and (= var19 var18) (= var17 var16)) (= var15 var14)) (= var13 var12)) (= var11 var10)) (= var9 var8)) (= var7 (|node::n| (getnode (read var18 var8))))) (and (not (= var6 nullAddr)) (and (and (and (and (and (and (= var18 var25) (= var16 var24)) (= var14 var23)) (= var12 var22)) (= var10 var21)) (= var8 var20)) (= var6 (|node::n| (getnode (read var25 var20))))))) (and (and (and (and (and (= var5 (write var19 var9 defObj)) (= var4 var17)) (= var3 var15)) (= var2 var13)) (= var1 var7)) (= var0 var9))))) (inv_main_38 var5 var4 var3 var2 var1 var1))))
(assert (forall ((var0 Addr) (var1 Addr) (var2 Addr) (var3 Int) (var4 Int) (var5 Heap) (var6 Int) (var7 Addr) (var8 Addr) (var9 Addr) (var10 Int) (var11 Int) (var12 Heap)) (or (not (and (inv_main_27 var12 var11 var10 var9 var8 var7) (and (not (= var6 1)) (and (and (and (and (and (and (= var5 var12) (= var4 var11)) (= var3 var10)) (= var2 var9)) (= var1 var8)) (= var0 var7)) (= var6 (|node::h| (getnode (read var12 var7)))))))) (inv_main_28 var5 var4 var3 var2 var1 var0))))
(assert (forall ((var0 Int) (var1 Addr) (var2 Addr) (var3 Addr) (var4 Addr) (var5 Addr) (var6 Addr) (var7 Addr) (var8 Int) (var9 Int) (var10 Int) (var11 Int) (var12 Heap) (var13 Heap) (var14 Addr) (var15 Addr) (var16 Addr) (var17 Int) (var18 Int) (var19 Heap)) (or (not (and (inv_main_28 var19 var18 var17 var16 var15 var14) (and (and (and (and (and (and (and (= var13 var12) (= var11 var10)) (= var9 (+ var8 1))) (= var7 var6)) (= var5 var4)) (= var3 var2)) (= var1 (|node::n| (getnode (read var12 var2))))) (and (= var0 2) (and (and (and (and (and (and (= var12 var19) (= var10 var18)) (= var8 var17)) (= var6 var16)) (= var4 var15)) (= var2 var14)) (= var0 (|node::h| (getnode (read var19 var14))))))))) (inv_main_28 var13 var11 var9 var7 var5 var1))))
(assert (forall ((var0 Int) (var1 Addr) (var2 Addr) (var3 Addr) (var4 Int) (var5 Int) (var6 Heap)) (or (not (inv_main550_17 var6 var5 var4 var3 var2 var1 var0)) (inv_main550_17 var6 var5 var4 var3 var2 var1 var0))))
(assert (forall ((var0 Int) (var1 Int) (var2 Addr) (var3 Addr) (var4 Addr) (var5 Addr) (var6 Addr) (var7 Addr) (var8 Int) (var9 Int) (var10 Int) (var11 Int) (var12 node) (var13 Heap) (var14 Heap) (var15 Addr) (var16 Addr) (var17 Addr) (var18 Addr) (var19 Int) (var20 Int) (var21 Heap)) (or (not (and (inv_main_3 var21 var20 var19 var18 var17 var16) (and (and (= var15 nullAddr) (and (and (and (and (and (and (and (and (= var14 (newHeap (alloc var13 (O_node var12)))) (= var11 var10)) (= var9 var8)) (= var7 var6)) (= var5 var4)) (= var3 var2)) (= var15 (newAddr (alloc var13 (O_node var12))))) (and (not (= var1 0)) (<= 0 (+ (+ 10 (* (- 1) var19)) (- 1))))) (and (and (and (and (and (= var13 (write var21 var16 (O_node (node 2 (|node::n| (getnode (read var21 var16))))))) (= var10 var20)) (= var8 (+ var19 1))) (= var6 var18)) (= var4 var17)) (= var2 var16)))) (= var0 1)))) (inv_main550_17 var14 var11 var9 var7 var15 var3 var0))))
(assert (forall ((var0 Addr) (var1 Addr) (var2 Addr) (var3 Int) (var4 Int) (var5 Heap)) (not (inv_main567_6_35 var5 var4 var3 var2 var1 var0))))
(check-sat)
